20
1 0 3
2 0 2
2 1 3
3 0 4
3 1 4
3 2 2
4 0 1
4 1 2
4 2 5
4 3 2
5 0 2
5 1 1
5 2 5
5 3 4
5 4 4
6 0 4
6 1 2
6 2 1
6 3 5
6 4 4
6 5 2
7 0 2
7 1 3
7 2 5
7 3 2
7 4 5
7 5 4
7 6 5
8 0 3
8 1 1
8 2 2
8 3 3
8 4 1
8 5 4
8 6 3
8 7 5
9 0 5
9 1 4
9 2 4
9 3 4
9 4 5
9 5 5
9 6 5
9 7 3
9 8 3
10 0 4
10 1 4
10 2 1
10 3 4
10 4 5
10 5 5
10 6 4
10 7 2
10 8 4
10 9 1
11 0 4
11 1 4
11 2 4
11 3 5
11 4 3
11 5 4
11 6 4
11 7 2
11 8 3
11 9 5
11 10 4
12 0 4
12 1 5
12 2 1
12 3 1
12 4 2
12 5 5
12 6 4
12 7 5
12 8 4
12 9 4
12 10 4
12 11 4
13 0 4
13 1 2
13 2 3
13 3 4
13 4 4
13 5 3
13 6 3
13 7 1
13 8 1
13 9 1
13 10 5
13 11 3
13 12 1
14 0 1
14 1 1
14 2 2
14 3 2
14 4 5
14 5 2
14 6 3
14 7 2
14 8 5
14 9 5
14 10 2
14 11 4
14 12 5
14 13 5
15 0 5
15 1 3
15 2 3
15 3 5
15 4 5
15 5 1
15 6 5
15 7 3
15 8 3
15 9 4
15 10 1
15 11 2
15 12 3
15 13 3
15 14 4
16 0 2
16 1 2
16 2 4
16 3 5
16 4 4
16 5 4
16 6 5
16 7 1
16 8 4
16 9 4
16 10 4
16 11 2
16 12 2
16 13 5
16 14 3
16 15 5
17 0 4
17 1 3
17 2 1
17 3 2
17 4 5
17 5 5
17 6 2
17 7 2
17 8 3
17 9 5
17 10 1
17 11 3
17 12 4
17 13 4
17 14 5
17 15 4
17 16 4
18 0 2
18 1 3
18 2 1
18 3 2
18 4 5
18 5 5
18 6 1
18 7 3
18 8 3
18 9 5
18 10 1
18 11 2
18 12 3
18 13 5
18 14 1
18 15 5
18 16 4
18 17 1
19 0 4
19 1 2
19 2 4
19 3 1
19 4 2
19 5 1
19 6 2
19 7 1
19 8 1
19 9 1
19 10 2
19 11 3
19 12 3
19 13 3
19 14 1
19 15 3
19 16 3
19 17 3
19 18 5
